unsat
(:cnf-encoding-aux-vars   143
 :eliminated-applications 3
 :eliminated-vars         129
 :max-memory              19.81
 :memory                  18.87
 :nlsat-conflicts         132
 :nlsat-decisions         2639
 :nlsat-learned-added     131
 :nlsat-learned-deleted   50
 :nlsat-propagations      3310
 :nlsat-restarts          1
 :num-allocs              40782
 :rlimit-count            129691
 :time                    0.06
 :total-time              0.07)
